set Stages := 
Stage_1
Stage_2
Stage_3
Stage_4
;

set Nodes := 
Node_1_1
Node_2_1
Node_2_2
Node_2_3
Node_3_1
Node_3_2
Node_3_3
Node_3_4
Node_3_5
Node_3_6
Node_3_7
Node_3_8
Node_3_9
Node_4_1
Node_4_2
Node_4_3
Node_4_4
Node_4_5
Node_4_6
Node_4_7
Node_4_8
Node_4_9
Node_4_10
Node_4_11
Node_4_12
Node_4_13
Node_4_14
Node_4_15
Node_4_16
Node_4_17
Node_4_18
Node_4_19
Node_4_20
Node_4_21
Node_4_22
Node_4_23
Node_4_24
Node_4_25
Node_4_26
Node_4_27
;

param NodeStage := 
Node_1_1     Stage_1
Node_2_1     Stage_2
Node_2_2     Stage_2
Node_2_3     Stage_2
Node_3_1     Stage_3
Node_3_2     Stage_3
Node_3_3     Stage_3
Node_3_4     Stage_3
Node_3_5     Stage_3
Node_3_6     Stage_3
Node_3_7     Stage_3
Node_3_8     Stage_3
Node_3_9     Stage_3
Node_4_1     Stage_4
Node_4_2     Stage_4
Node_4_3     Stage_4
Node_4_4     Stage_4
Node_4_5     Stage_4
Node_4_6     Stage_4
Node_4_7     Stage_4
Node_4_8     Stage_4
Node_4_9     Stage_4
Node_4_10     Stage_4
Node_4_11     Stage_4
Node_4_12     Stage_4
Node_4_13     Stage_4
Node_4_14     Stage_4
Node_4_15     Stage_4
Node_4_16     Stage_4
Node_4_17     Stage_4
Node_4_18     Stage_4
Node_4_19     Stage_4
Node_4_20     Stage_4
Node_4_21     Stage_4
Node_4_22     Stage_4
Node_4_23     Stage_4
Node_4_24     Stage_4
Node_4_25     Stage_4
Node_4_26     Stage_4
Node_4_27     Stage_4
;

set Children[Node_1_1] :=
Node_2_1
Node_2_2
Node_2_3
;
set Children[Node_2_1] :=
Node_3_1
Node_3_2
Node_3_3
;
set Children[Node_2_2] :=
Node_3_4
Node_3_5
Node_3_6
;
set Children[Node_2_3] :=
Node_3_7
Node_3_8
Node_3_9
;
set Children[Node_3_1] :=
Node_4_1
Node_4_2
Node_4_3
;
set Children[Node_3_2] :=
Node_4_4
Node_4_5
Node_4_6
;
set Children[Node_3_3] :=
Node_4_7
Node_4_8
Node_4_9
;
set Children[Node_3_4] :=
Node_4_10
Node_4_11
Node_4_12
;
set Children[Node_3_5] :=
Node_4_13
Node_4_14
Node_4_15
;
set Children[Node_3_6] :=
Node_4_16
Node_4_17
Node_4_18
;
set Children[Node_3_7] :=
Node_4_19
Node_4_20
Node_4_21
;
set Children[Node_3_8] :=
Node_4_22
Node_4_23
Node_4_24
;
set Children[Node_3_9] :=
Node_4_25
Node_4_26
Node_4_27
;

param ConditionalProbability := 
Node_1_1     1.0
Node_2_1     0.333333333333
Node_2_2     0.333333333333
Node_2_3     0.333333333333
Node_3_1     0.333333333333
Node_3_2     0.333333333333
Node_3_3     0.333333333333
Node_3_4     0.333333333333
Node_3_5     0.333333333333
Node_3_6     0.333333333333
Node_3_7     0.333333333333
Node_3_8     0.333333333333
Node_3_9     0.333333333333
Node_4_1     0.333333333333
Node_4_2     0.333333333333
Node_4_3     0.333333333333
Node_4_4     0.333333333333
Node_4_5     0.333333333333
Node_4_6     0.333333333333
Node_4_7     0.333333333333
Node_4_8     0.333333333333
Node_4_9     0.333333333333
Node_4_10     0.333333333333
Node_4_11     0.333333333333
Node_4_12     0.333333333333
Node_4_13     0.333333333333
Node_4_14     0.333333333333
Node_4_15     0.333333333333
Node_4_16     0.333333333333
Node_4_17     0.333333333333
Node_4_18     0.333333333333
Node_4_19     0.333333333333
Node_4_20     0.333333333333
Node_4_21     0.333333333333
Node_4_22     0.333333333333
Node_4_23     0.333333333333
Node_4_24     0.333333333333
Node_4_25     0.333333333333
Node_4_26     0.333333333333
Node_4_27     0.333333333333
;

set Scenarios :=
Scenario_1
Scenario_2
Scenario_3
Scenario_4
Scenario_5
Scenario_6
Scenario_7
Scenario_8
Scenario_9
Scenario_10
Scenario_11
Scenario_12
Scenario_13
Scenario_14
Scenario_15
Scenario_16
Scenario_17
Scenario_18
Scenario_19
Scenario_20
Scenario_21
Scenario_22
Scenario_23
Scenario_24
Scenario_25
Scenario_26
Scenario_27
;

param ScenarioLeafNode := 
Scenario_1    Node_4_1
Scenario_2    Node_4_2
Scenario_3    Node_4_3
Scenario_4    Node_4_4
Scenario_5    Node_4_5
Scenario_6    Node_4_6
Scenario_7    Node_4_7
Scenario_8    Node_4_8
Scenario_9    Node_4_9
Scenario_10    Node_4_10
Scenario_11    Node_4_11
Scenario_12    Node_4_12
Scenario_13    Node_4_13
Scenario_14    Node_4_14
Scenario_15    Node_4_15
Scenario_16    Node_4_16
Scenario_17    Node_4_17
Scenario_18    Node_4_18
Scenario_19    Node_4_19
Scenario_20    Node_4_20
Scenario_21    Node_4_21
Scenario_22    Node_4_22
Scenario_23    Node_4_23
Scenario_24    Node_4_24
Scenario_25    Node_4_25
Scenario_26    Node_4_26
Scenario_27    Node_4_27
;

param StageCostVariable :=
Stage_1   StageCost[1]
Stage_2   StageCost[2]
Stage_3   StageCost[3]
Stage_4   StageCost[4]
;

set StageVariables[Stage_1] := 
ProcureResource[1,*]
AmountProcured[1,*]
;
set StageVariables[Stage_2] := 
ProcureResource[2,*]
AmountProcured[2,*]
;
set StageVariables[Stage_3] := 
ProcureResource[3,*]
AmountProcured[3,*]
;
set StageVariables[Stage_4] := 
ProcureResource[4,*]
AmountProcured[4,*]
;

param ScenarioBasedData := False ;

